20
0 1 0.68 0.38
0 2 0.48 0.26
0 3 0.74 0.36
0 4 0.78 0.3
0 5 0.66 0.39
0 6 0.46 0.4
0 7 0.55 0.3
0 8 0.84 0.34
0 9 0.34 0.24
0 10 0.78 0.47
0 11 0.73 0.29
0 12 0.64 0.33
0 13 0.68 0.26
0 14 0.36 0.32
0 15 0.64 0.18
0 16 0.5 0.27
0 17 0.48 0.26
0 18 0.42 0.08
0 19 0.64 0.35
1 2 0.62 0.24
1 3 0.84 0.42
1 4 0.67 0.14
1 5 0.46 0.3
1 6 0.8 0.18
1 7 0.7 0.08
1 8 0.62 0.22
1 9 0.78 0.25
1 10 0.58 0.34
1 11 0.78 0.33
1 12 0.78 0.2
1 13 0.58 0.3
1 14 0.73 0.31
1 15 0.5 0.26
1 16 0.7 0.14
1 17 0.47 0.35
1 18 0.79 0.33
1 19 0.75 0.13
2 3 0.61 0.41
2 4 0.54 0.22
2 5 0.52 0.26
2 6 0.53 0.26
2 7 0.52 0.16
2 8 0.56 0.3
2 9 0.6 0.33
2 10 0.64 0.3
2 11 0.58 0.41
2 12 0.46 0.16
2 13 0.48 0.3
2 14 0.68 0.29
2 15 0.52 0.34
2 16 0.66 0.1
2 17 0.86 0.11
2 18 0.4 0.29
2 19 0.76 0.21
3 4 0.54 0.46
3 5 0.7 0.43
3 6 0.85 0.42
3 7 0.69 0.42
3 8 0.62 0.52
3 9 0.63 0.4
3 10 0.47 0.23
3 11 0.44 0.26
3 12 0.58 0.42
3 13 0.73 0.3
3 14 0.63 0.22
3 15 0.69 0.36
3 16 0.49 0.36
3 17 0.62 0.3
3 18 0.53 0.28
3 19 0.62 0.4
4 5 0.5 0.28
4 6 0.48 0.16
4 7 0.52 0.06
4 8 0.52 0.2
4 9 0.73 0.23
4 10 0.86 0.32
4 11 0.58 0.31
4 12 0.57 0.18
4 13 0.58 0.16
4 14 0.45 0.26
4 15 0.49 0.12
4 16 0.52 0.12
4 17 0.52 0.33
4 18 0.84 0.31
4 19 0.72 0.11
5 6 0.5 0.25
5 7 0.52 0.22
5 8 0.73 0.36
5 9 0.73 0.32
5 10 0.82 0.36
5 11 0.44 0.17
5 12 0.62 0.1
5 13 0.47 0.28
5 14 0.48 0.38
5 15 0.71 0.4
5 16 0.7 0.16
5 17 0.7 0.3
5 18 0.44 0.31
5 19 0.58 0.2
6 7 0.66 0.1
6 8 0.44 0.24
6 9 0.46 0.22
6 10 0.71 0.36
6 11 0.45 0.35
6 12 0.71 0.15
6 13 0.64 0.2
6 14 0.64 0.33
6 15 0.66 0.28
6 16 0.56 0.16
6 17 0.94 0.25
6 18 0.53 0.35
6 19 0.68 0.15
7 8 0.29 0.14
7 9 0.21 0.17
7 10 0.65 0.26
7 11 0.42 0.25
7 12 0.58 0.12
7 13 0.52 0.22
7 14 0.49 0.23
7 15 0.65 0.18
7 16 0.52 0.06
7 17 0.69 0.27
7 18 0.71 0.25
7 19 0.38 0.05
8 9 0.5 0.31
8 10 0.54 0.4
8 11 0.48 0.39
8 12 0.56 0.26
8 13 0.48 0.23
8 14 0.48 0.37
8 15 0.84 0.32
8 16 0.54 0.2
8 17 0.88 0.41
8 18 0.42 0.32
8 19 0.62 0.19
9 10 0.44 0.34
9 11 0.63 0.37
9 12 0.66 0.29
9 13 0.68 0.34
9 14 0.62 0.32
9 15 0.44 0.35
9 16 0.44 0.23
9 17 0.48 0.34
9 18 0.56 0.16
9 19 0.59 0.22
10 11 0.63 0.46
10 12 0.78 0.26
10 13 0.35 0.31
10 14 0.76 0.44
10 15 0.72 0.44
10 16 0.49 0.2
10 17 0.66 0.41
10 18 0.53 0.39
10 19 0.64 0.31
11 12 0.92 0.27
11 13 0.53 0.34
11 14 0.7 0.38
11 15 0.84 0.43
11 16 0.93 0.31
11 17 0.63 0.4
11 18 0.53 0.21
11 19 0.5 0.2
12 13 0.45 0.26
12 14 0.62 0.28
12 15 0.56 0.3
12 16 0.5 0.06
12 17 0.43 0.2
12 18 0.62 0.25
12 19 0.47 0.1
13 14 0.91 0.42
13 15 0.76 0.28
13 16 0.44 0.2
13 17 0.42 0.37
13 18 0.26 0.18
13 19 0.47 0.27
14 15 0.5 0.14
14 16 0.5 0.29
14 17 0.8 0.4
14 18 0.7 0.24
14 19 0.7 0.18
15 16 0.56 0.24
15 17 0.52 0.44
15 18 0.5 0.26
15 19 0.88 0.23
16 17 0.68 0.21
16 18 0.66 0.19
16 19 0.59 0.11
17 18 0.59 0.19
17 19 0.46 0.3
18 19 0.58 0.3
